p cnf 120 1030
1 2 3 0
4 5 6 0
7 8 9 0
10 11 12 0
13 14 15 0
16 17 18 0
19 20 21 0
22 23 24 0
25 26 27 0
28 29 30 0
31 32 33 0
34 35 36 0
37 38 39 0
40 41 42 0
43 44 45 0
46 47 48 0
49 50 51 0
52 53 54 0
55 56 57 0
58 59 60 0
61 62 63 0
64 65 66 0
67 68 69 0
70 71 72 0
73 74 75 0
76 77 78 0
79 80 81 0
82 83 84 0
85 86 87 0
88 89 90 0
91 92 93 0
94 95 96 0
97 98 99 0
100 101 102 0
103 104 105 0
106 107 108 0
109 110 111 0
112 113 114 0
115 116 117 0
118 119 120 0
-1 -2 0
-1 -3 0
-2 -3 0
-4 -5 0
-4 -6 0
-5 -6 0
-7 -8 0
-7 -9 0
-8 -9 0
-10 -11 0
-10 -12 0
-11 -12 0
-13 -14 0
-13 -15 0
-14 -15 0
-16 -17 0
-16 -18 0
-17 -18 0
-19 -20 0
-19 -21 0
-20 -21 0
-22 -23 0
-22 -24 0
-23 -24 0
-25 -26 0
-25 -27 0
-26 -27 0
-28 -29 0
-28 -30 0
-29 -30 0
-31 -32 0
-31 -33 0
-32 -33 0
-34 -35 0
-34 -36 0
-35 -36 0
-37 -38 0
-37 -39 0
-38 -39 0
-40 -41 0
-40 -42 0
-41 -42 0
-43 -44 0
-43 -45 0
-44 -45 0
-46 -47 0
-46 -48 0
-47 -48 0
-49 -50 0
-49 -51 0
-50 -51 0
-52 -53 0
-52 -54 0
-53 -54 0
-55 -56 0
-55 -57 0
-56 -57 0
-58 -59 0
-58 -60 0
-59 -60 0
-61 -62 0
-61 -63 0
-62 -63 0
-64 -65 0
-64 -66 0
-65 -66 0
-67 -68 0
-67 -69 0
-68 -69 0
-70 -71 0
-70 -72 0
-71 -72 0
-73 -74 0
-73 -75 0
-74 -75 0
-76 -77 0
-76 -78 0
-77 -78 0
-79 -80 0
-79 -81 0
-80 -81 0
-82 -83 0
-82 -84 0
-83 -84 0
-85 -86 0
-85 -87 0
-86 -87 0
-88 -89 0
-88 -90 0
-89 -90 0
-91 -92 0
-91 -93 0
-92 -93 0
-94 -95 0
-94 -96 0
-95 -96 0
-97 -98 0
-97 -99 0
-98 -99 0
-100 -101 0
-100 -102 0
-101 -102 0
-103 -104 0
-103 -105 0
-104 -105 0
-106 -107 0
-106 -108 0
-107 -108 0
-109 -110 0
-109 -111 0
-110 -111 0
-112 -113 0
-112 -114 0
-113 -114 0
-115 -116 0
-115 -117 0
-116 -117 0
-118 -119 0
-118 -120 0
-119 -120 0
-1 -22 0
-1 -40 0
-1 -61 0
-1 -85 0
-1 -97 0
-1 -100 0
-4 -13 0
-4 -25 0
-4 -46 0
-4 -58 0
-4 -70 0
-4 -82 0
-4 -88 0
-4 -100 0
-4 -112 0
-7 -13 0
-7 -16 0
-7 -22 0
-7 -46 0
-7 -49 0
-7 -76 0
-7 -79 0
-7 -82 0
-10 -31 0
-10 -34 0
-10 -43 0
-10 -49 0
-10 -52 0
-10 -61 0
-10 -70 0
-10 -79 0
-13 -4 0
-13 -7 0
-13 -28 0
-13 -52 0
-13 -58 0
-13 -76 0
-13 -88 0
-13 -112 0
-16 -7 0
-16 -25 0
-16 -40 0
-16 -52 0
-16 -64 0
-16 -79 0
-19 -22 0
-19 -28 0
-19 -46 0
-19 -55 0
-19 -58 0
-19 -64 0
-19 -97 0
-19 -103 0
-22 -1 0
-22 -7 0
-22 -19 0
-22 -28 0
-22 -61 0
-22 -70 0
-22 -88 0
-22 -91 0
-25 -4 0
-25 -16 0
-25 -46 0
-25 -52 0
-25 -55 0
-25 -76 0
-28 -13 0
-28 -19 0
-28 -22 0
-28 -37 0
-28 -46 0
-28 -55 0
-28 -58 0
-28 -61 0
-28 -76 0
-31 -10 0
-31 -43 0
-31 -52 0
-31 -67 0
-31 -70 0
-31 -91 0
-31 -94 0
-31 -109 0
-34 -10 0
-34 -40 0
-34 -55 0
-34 -61 0
-34 -76 0
-34 -88 0
-34 -91 0
-37 -28 0
-37 -40 0
-37 -43 0
-37 -64 0
-37 -76 0
-37 -79 0
-37 -82 0
-37 -91 0
-37 -94 0
-40 -1 0
-40 -16 0
-40 -34 0
-40 -37 0
-40 -43 0
-40 -46 0
-40 -91 0
-40 -115 0
-43 -10 0
-43 -31 0
-43 -37 0
-43 -40 0
-43 -46 0
-43 -58 0
-46 -4 0
-46 -7 0
-46 -19 0
-46 -25 0
-46 -28 0
-46 -40 0
-46 -43 0
-46 -61 0
-49 -7 0
-49 -10 0
-49 -55 0
-49 -58 0
-49 -82 0
-52 -10 0
-52 -13 0
-52 -16 0
-52 -25 0
-52 -31 0
-52 -64 0
-52 -73 0
-52 -100 0
-55 -19 0
-55 -25 0
-55 -28 0
-55 -34 0
-55 -49 0
-55 -73 0
-55 -88 0
-58 -4 0
-58 -13 0
-58 -19 0
-58 -28 0
-58 -43 0
-61 -1 0
-61 -10 0
-61 -22 0
-61 -28 0
-61 -34 0
-64 -16 0
-64 -19 0
-64 -37 0
-64 -52 0
-64 -76 0
-64 -88 0
-64 -100 0
-67 -31 0
-67 -70 0
-67 -88 0
-67 -94 0
-67 -97 0
-67 -109 0
-70 -4 0
-70 -10 0
-70 -22 0
-70 -31 0
-70 -67 0
-70 -82 0
-73 -52 0
-73 -55 0
-73 -79 0
-73 -82 0
-73 -85 0
-73 -94 0
-73 -109 0
-73 -115 0
-76 -7 0
-76 -13 0
-76 -25 0
-76 -28 0
-76 -34 0
-76 -37 0
-76 -64 0
-76 -94 0
-79 -7 0
-79 -10 0
-79 -16 0
-79 -37 0
-79 -73 0
-79 -103 0
-82 -4 0
-82 -7 0
-82 -10 0
-82 -37 0
-82 -49 0
-82 -70 0
-82 -73 0
-82 -94 0
-85 -1 0
-85 -46 0
-85 -73 0
-85 -97 0
-85 -100 0
-85 -103 0
-85 -115 0
-88 -4 0
-88 -13 0
-88 -22 0
-88 -28 0
-88 -34 0
-88 -55 0
-88 -64 0
-91 -22 0
-91 -31 0
-91 -34 0
-91 -37 0
-91 -40 0
-91 -100 0
-91 -109 0
-91 -112 0
-94 -31 0
-94 -37 0
-94 -49 0
-94 -67 0
-94 -73 0
-94 -76 0
-94 -82 0
-97 -1 0
-97 -19 0
-97 -43 0
-97 -67 0
-97 -85 0
-97 -106 0
-97 -112 0
-100 -1 0
-100 -4 0
-100 -25 0
-100 -37 0
-100 -52 0
-100 -64 0
-100 -85 0
-100 -91 0
-100 -112 0
-103 -19 0
-103 -34 0
-103 -55 0
-103 -76 0
-103 -79 0
-103 -85 0
-103 -94 0
-103 -106 0
-106 -52 0
-106 -64 0
-106 -79 0
-106 -97 0
-106 -103 0
-106 -109 0
-106 -112 0
-109 -16 0
-109 -31 0
-109 -67 0
-109 -73 0
-109 -82 0
-109 -91 0
-112 -1 0
-112 -4 0
-112 -13 0
-112 -91 0
-112 -97 0
-112 -100 0
-115 -4 0
-115 -7 0
-115 -31 0
-115 -40 0
-115 -67 0
-115 -73 0
-115 -85 0
-115 -97 0
-115 -100 0
-118 -13 0
-118 -19 0
-118 -22 0
-118 -40 0
-118 -70 0
-118 -73 0
-118 -85 0
-118 -91 0
-2 -23 0
-2 -41 0
-2 -62 0
-2 -86 0
-2 -98 0
-2 -101 0
-5 -14 0
-5 -26 0
-5 -47 0
-5 -59 0
-5 -71 0
-5 -83 0
-5 -89 0
-5 -101 0
-5 -113 0
-8 -14 0
-8 -17 0
-8 -23 0
-8 -47 0
-8 -50 0
-8 -77 0
-8 -80 0
-8 -83 0
-11 -32 0
-11 -35 0
-11 -44 0
-11 -50 0
-11 -53 0
-11 -62 0
-11 -71 0
-11 -80 0
-14 -5 0
-14 -8 0
-14 -29 0
-14 -53 0
-14 -59 0
-14 -77 0
-14 -89 0
-14 -113 0
-17 -8 0
-17 -26 0
-17 -41 0
-17 -53 0
-17 -65 0
-17 -80 0
-20 -23 0
-20 -29 0
-20 -47 0
-20 -56 0
-20 -59 0
-20 -65 0
-20 -98 0
-20 -104 0
-23 -2 0
-23 -8 0
-23 -20 0
-23 -29 0
-23 -62 0
-23 -71 0
-23 -89 0
-23 -92 0
-26 -5 0
-26 -17 0
-26 -47 0
-26 -53 0
-26 -56 0
-26 -77 0
-29 -14 0
-29 -20 0
-29 -23 0
-29 -38 0
-29 -47 0
-29 -56 0
-29 -59 0
-29 -62 0
-29 -77 0
-32 -11 0
-32 -44 0
-32 -53 0
-32 -68 0
-32 -71 0
-32 -92 0
-32 -95 0
-32 -110 0
-35 -11 0
-35 -41 0
-35 -56 0
-35 -62 0
-35 -77 0
-35 -89 0
-35 -92 0
-38 -29 0
-38 -41 0
-38 -44 0
-38 -65 0
-38 -77 0
-38 -80 0
-38 -83 0
-38 -92 0
-38 -95 0
-41 -2 0
-41 -17 0
-41 -35 0
-41 -38 0
-41 -44 0
-41 -47 0
-41 -92 0
-41 -116 0
-44 -11 0
-44 -32 0
-44 -38 0
-44 -41 0
-44 -47 0
-44 -59 0
-47 -5 0
-47 -8 0
-47 -20 0
-47 -26 0
-47 -29 0
-47 -41 0
-47 -44 0
-47 -62 0
-50 -8 0
-50 -11 0
-50 -56 0
-50 -59 0
-50 -83 0
-53 -11 0
-53 -14 0
-53 -17 0
-53 -26 0
-53 -32 0
-53 -65 0
-53 -74 0
-53 -101 0
-56 -20 0
-56 -26 0
-56 -29 0
-56 -35 0
-56 -50 0
-56 -74 0
-56 -89 0
-59 -5 0
-59 -14 0
-59 -20 0
-59 -29 0
-59 -44 0
-62 -2 0
-62 -11 0
-62 -23 0
-62 -29 0
-62 -35 0
-65 -17 0
-65 -20 0
-65 -38 0
-65 -53 0
-65 -77 0
-65 -89 0
-65 -101 0
-68 -32 0
-68 -71 0
-68 -89 0
-68 -95 0
-68 -98 0
-68 -110 0
-71 -5 0
-71 -11 0
-71 -23 0
-71 -32 0
-71 -68 0
-71 -83 0
-74 -53 0
-74 -56 0
-74 -80 0
-74 -83 0
-74 -86 0
-74 -95 0
-74 -110 0
-74 -116 0
-77 -8 0
-77 -14 0
-77 -26 0
-77 -29 0
-77 -35 0
-77 -38 0
-77 -65 0
-77 -95 0
-80 -8 0
-80 -11 0
-80 -17 0
-80 -38 0
-80 -74 0
-80 -104 0
-83 -5 0
-83 -8 0
-83 -11 0
-83 -38 0
-83 -50 0
-83 -71 0
-83 -74 0
-83 -95 0
-86 -2 0
-86 -47 0
-86 -74 0
-86 -98 0
-86 -101 0
-86 -104 0
-86 -116 0
-89 -5 0
-89 -14 0
-89 -23 0
-89 -29 0
-89 -35 0
-89 -56 0
-89 -65 0
-92 -23 0
-92 -32 0
-92 -35 0
-92 -38 0
-92 -41 0
-92 -101 0
-92 -110 0
-92 -113 0
-95 -32 0
-95 -38 0
-95 -50 0
-95 -68 0
-95 -74 0
-95 -77 0
-95 -83 0
-98 -2 0
-98 -20 0
-98 -44 0
-98 -68 0
-98 -86 0
-98 -107 0
-98 -113 0
-101 -2 0
-101 -5 0
-101 -26 0
-101 -38 0
-101 -53 0
-101 -65 0
-101 -86 0
-101 -92 0
-101 -113 0
-104 -20 0
-104 -35 0
-104 -56 0
-104 -77 0
-104 -80 0
-104 -86 0
-104 -95 0
-104 -107 0
-107 -53 0
-107 -65 0
-107 -80 0
-107 -98 0
-107 -104 0
-107 -110 0
-107 -113 0
-110 -17 0
-110 -32 0
-110 -68 0
-110 -74 0
-110 -83 0
-110 -92 0
-113 -2 0
-113 -5 0
-113 -14 0
-113 -92 0
-113 -98 0
-113 -101 0
-116 -5 0
-116 -8 0
-116 -32 0
-116 -41 0
-116 -68 0
-116 -74 0
-116 -86 0
-116 -98 0
-116 -101 0
-119 -14 0
-119 -20 0
-119 -23 0
-119 -41 0
-119 -71 0
-119 -74 0
-119 -86 0
-119 -92 0
-3 -24 0
-3 -42 0
-3 -63 0
-3 -87 0
-3 -99 0
-3 -102 0
-6 -15 0
-6 -27 0
-6 -48 0
-6 -60 0
-6 -72 0
-6 -84 0
-6 -90 0
-6 -102 0
-6 -114 0
-9 -15 0
-9 -18 0
-9 -24 0
-9 -48 0
-9 -51 0
-9 -78 0
-9 -81 0
-9 -84 0
-12 -33 0
-12 -36 0
-12 -45 0
-12 -51 0
-12 -54 0
-12 -63 0
-12 -72 0
-12 -81 0
-15 -6 0
-15 -9 0
-15 -30 0
-15 -54 0
-15 -60 0
-15 -78 0
-15 -90 0
-15 -114 0
-18 -9 0
-18 -27 0
-18 -42 0
-18 -54 0
-18 -66 0
-18 -81 0
-21 -24 0
-21 -30 0
-21 -48 0
-21 -57 0
-21 -60 0
-21 -66 0
-21 -99 0
-21 -105 0
-24 -3 0
-24 -9 0
-24 -21 0
-24 -30 0
-24 -63 0
-24 -72 0
-24 -90 0
-24 -93 0
-27 -6 0
-27 -18 0
-27 -48 0
-27 -54 0
-27 -57 0
-27 -78 0
-30 -15 0
-30 -21 0
-30 -24 0
-30 -39 0
-30 -48 0
-30 -57 0
-30 -60 0
-30 -63 0
-30 -78 0
-33 -12 0
-33 -45 0
-33 -54 0
-33 -69 0
-33 -72 0
-33 -93 0
-33 -96 0
-33 -111 0
-36 -12 0
-36 -42 0
-36 -57 0
-36 -63 0
-36 -78 0
-36 -90 0
-36 -93 0
-39 -30 0
-39 -42 0
-39 -45 0
-39 -66 0
-39 -78 0
-39 -81 0
-39 -84 0
-39 -93 0
-39 -96 0
-42 -3 0
-42 -18 0
-42 -36 0
-42 -39 0
-42 -45 0
-42 -48 0
-42 -93 0
-42 -117 0
-45 -12 0
-45 -33 0
-45 -39 0
-45 -42 0
-45 -48 0
-45 -60 0
-48 -6 0
-48 -9 0
-48 -21 0
-48 -27 0
-48 -30 0
-48 -42 0
-48 -45 0
-48 -63 0
-51 -9 0
-51 -12 0
-51 -57 0
-51 -60 0
-51 -84 0
-54 -12 0
-54 -15 0
-54 -18 0
-54 -27 0
-54 -33 0
-54 -66 0
-54 -75 0
-54 -102 0
-57 -21 0
-57 -27 0
-57 -30 0
-57 -36 0
-57 -51 0
-57 -75 0
-57 -90 0
-60 -6 0
-60 -15 0
-60 -21 0
-60 -30 0
-60 -45 0
-63 -3 0
-63 -12 0
-63 -24 0
-63 -30 0
-63 -36 0
-66 -18 0
-66 -21 0
-66 -39 0
-66 -54 0
-66 -78 0
-66 -90 0
-66 -102 0
-69 -33 0
-69 -72 0
-69 -90 0
-69 -96 0
-69 -99 0
-69 -111 0
-72 -6 0
-72 -12 0
-72 -24 0
-72 -33 0
-72 -69 0
-72 -84 0
-75 -54 0
-75 -57 0
-75 -81 0
-75 -84 0
-75 -87 0
-75 -96 0
-75 -111 0
-75 -117 0
-78 -9 0
-78 -15 0
-78 -27 0
-78 -30 0
-78 -36 0
-78 -39 0
-78 -66 0
-78 -96 0
-81 -9 0
-81 -12 0
-81 -18 0
-81 -39 0
-81 -75 0
-81 -105 0
-84 -6 0
-84 -9 0
-84 -12 0
-84 -39 0
-84 -51 0
-84 -72 0
-84 -75 0
-84 -96 0
-87 -3 0
-87 -48 0
-87 -75 0
-87 -99 0
-87 -102 0
-87 -105 0
-87 -117 0
-90 -6 0
-90 -15 0
-90 -24 0
-90 -30 0
-90 -36 0
-90 -57 0
-90 -66 0
-93 -24 0
-93 -33 0
-93 -36 0
-93 -39 0
-93 -42 0
-93 -102 0
-93 -111 0
-93 -114 0
-96 -33 0
-96 -39 0
-96 -51 0
-96 -69 0
-96 -75 0
-96 -78 0
-96 -84 0
-99 -3 0
-99 -21 0
-99 -45 0
-99 -69 0
-99 -87 0
-99 -108 0
-99 -114 0
-102 -3 0
-102 -6 0
-102 -27 0
-102 -39 0
-102 -54 0
-102 -66 0
-102 -87 0
-102 -93 0
-102 -114 0
-105 -21 0
-105 -36 0
-105 -57 0
-105 -78 0
-105 -81 0
-105 -87 0
-105 -96 0
-105 -108 0
-108 -54 0
-108 -66 0
-108 -81 0
-108 -99 0
-108 -105 0
-108 -111 0
-108 -114 0
-111 -18 0
-111 -33 0
-111 -69 0
-111 -75 0
-111 -84 0
-111 -93 0
-114 -3 0
-114 -6 0
-114 -15 0
-114 -93 0
-114 -99 0
-114 -102 0
-117 -6 0
-117 -9 0
-117 -33 0
-117 -42 0
-117 -69 0
-117 -75 0
-117 -87 0
-117 -99 0
-117 -102 0
-120 -15 0
-120 -21 0
-120 -24 0
-120 -42 0
-120 -72 0
-120 -75 0
-120 -87 0
-120 -93 0
